Route #1: 148 297 176 232 227 159 49 243
Route #2: 124 318 171 184 212 259 200
Route #3: 169 17 108 269 199 177 194 208
Route #4: 112 53 26 114 64 98 67
Route #5: 235 13 80 160 136 284 267
Route #6: 58 219 282 96 222 292 185
Route #7: 253 263 236 165 237 195 268
Route #8: 278 163 134 145 78 126 63
Route #9: 250 157 228 50 289 125 294
Route #10: 272 137 186 262 304 270 213
Route #11: 224 239 303 205 223 311 20 149
Route #12: 287 56 230 105 127 298 255
Route #13: 118 43 242 104 150 84 113 52 25
Route #14: 138 110 181 57 241 34 42
Route #15: 60 129 54 75 123 142 38 5 97
Route #16: 238 320 131 204 68 72 130 32
Route #17: 2 147 143 62 189 76 4 305
Route #18: 55 244 170 172 111 211 296
Route #19: 266 174 128 301 103 317 180 312
Route #20: 324 281 256 319 188 295 197 30
Route #21: 141 300 153 210 99 221 154
Route #22: 190 251 87 249 183 234 12 271
Route #23: 48 248 8 274 83 166 100 246
Route #24: 102 218 89 81 3 310 85 240
Route #25: 
Route #26: 
Route #27: 
Route #28: 
Route #29: 
Route #30: 
Route #31: 
Route #32: 
Route #33: 
Route #34: 
Route #35: 
Route #36: 
Route #37: 
Route #38: 
Route #39: 
Route #40: 
Route #41: 
Route #42: 
Route #43: 
Route #44: 
Route #45: 
Route #46: 
Route #47: 
Route #48: 
Route #49: 
Route #50: 
Route #51: 
Route #52: 
Route #53: 
Route #54: 
Route #55: 
Route #56: 
Route #57: 
Route #58: 
Route #59: 
Route #60: 
Route #61: 
Route #62: 
Route #63: 
Route #64: 
Route #65: 
Route #66: 
Route #67: 
Route #68: 
Route #69: 
Route #70: 
Route #71: 
Route #72: 
Route #73: 
Route #74: 
Route #75: 
Route #76: 
Route #77: 
Route #78: 
Route #79: 
Route #80: 
Route #81: 
Route #82: 
Route #83: 
Route #84: 
Route #85: 
Route #86: 
Route #87: 
Route #88: 
Route #89: 
Route #90: 
Route #91: 
Route #92: 
Route #93: 
Route #94: 
Route #95: 
Route #96: 
Route #97: 
Route #98: 
Route #99: 
Route #100: 
Route #101: 
Route #102: 
Route #103: 
Route #104: 
Route #105: 
Route #106: 
Route #107: 
Route #108: 
Route #109: 
Route #110: 
Route #111: 
Route #112: 
Route #113: 
Route #114: 
Route #115: 
Route #116: 
Route #117: 
Route #118: 
Route #119: 
Route #120: 
Route #121: 
Route #122: 
Route #123: 
Route #124: 
Route #125: 
Route #126: 
Route #127: 
Route #128: 
Route #129: 
Route #130: 
Route #131: 
Route #132: 
Route #133: 
Route #134: 
Route #135: 
Route #136: 
Route #137: 
Route #138: 
Route #139: 
Route #140: 
Route #141: 
Route #142: 
Route #143: 
Route #144: 
Route #145: 
Route #146: 
Route #147: 
Route #148: 
Route #149: 
Route #150: 
Route #151: 
Route #152: 
Route #153: 
Route #154: 
Route #155: 
Route #156: 
Route #157: 
Route #158: 
Route #159: 
Route #160: 
Route #161: 
Route #162: 
Route #163: 
Route #164: 
Route #165: 
Route #166: 
Route #167: 
Route #168: 
Route #169: 
Route #170: 
Route #171: 
Route #172: 
Route #173: 
Route #174: 
Route #175: 
Route #176: 
Route #177: 
Route #178: 
Route #179: 
Route #180: 
Route #181: 
Route #182: 
Route #183: 
Route #184: 
Route #185: 
Route #186: 
Route #187: 
Route #188: 
Route #189: 
Route #190: 
Route #191: 
Route #192: 
Route #193: 
Route #194: 
Route #195: 
Route #196: 
Route #197: 
Route #198: 
Route #199: 
Route #200: 
Route #201: 
Route #202: 
Route #203: 
Route #204: 
Route #205: 
Route #206: 
Route #207: 
Route #208: 
Route #209: 
Route #210: 
Route #211: 
Route #212: 
Route #213: 
Route #214: 
Route #215: 
Route #216: 
Route #217: 
Route #218: 
Route #219: 
Route #220: 
Route #221: 
Route #222: 
Route #223: 
Route #224: 
Route #225: 
Route #226: 
Route #227: 
Route #228: 
Route #229: 
Route #230: 
Route #231: 
Route #232: 
Route #233: 
Route #234: 
Route #235: 
Route #236: 
Route #237: 
Route #238: 
Route #239: 
Route #240: 
Route #241: 
Route #242: 
Route #243: 
Route #244: 
Route #245: 
Route #246: 
Route #247: 
Route #248: 
Route #249: 
Route #250: 
Route #251: 
Route #252: 
Route #253: 
Route #254: 
Route #255: 
Route #256: 
Route #257: 
Route #258: 
Route #259: 
Route #260: 
Route #261: 
Route #262: 
Route #263: 
Route #264: 
Route #265: 
Route #266: 
Route #267: 
Route #268: 
Route #269: 
Route #270: 
Route #271: 
Route #272: 
Route #273: 
Route #274: 
Route #275: 
Route #276: 
Route #277: 
Route #278: 
Route #279: 
Route #280: 
Route #281: 
Route #282: 
Route #283: 
Route #284: 
Route #285: 
Route #286: 
Route #287: 
Route #288: 
Route #289: 
Route #290: 
Route #291: 
Route #292: 
Route #293: 
Route #294: 
Route #295: 
Route #296: 
Route #297: 
Route #298: 
Route #299: 
Route #300: 
Route #301: 
Route #302: 
Route #303: 
Route #304: 
Route #305: 
Route #306: 
Route #307: 
Route #308: 
Route #309: 
Route #310: 
Route #311: 
Route #312: 
Route #313: 
Route #314: 
Route #315: 
Route #316: 
Route #317: 
Route #318: 
Route #319: 
Route #320: 
Route #321: 
Route #322: 
Route #323: 
Route #324: 
Route #325: 
Route #326: 
Route #327: 29 9 73 133 115 77 90 51 82 151 93
Route #328: 155 59 158 28 44 323 264 86 203 15 95
Route #329: 252 182 260 39 122 71 257 283 27 202 35
Route #330: 
Route #331: 
Route #332: 
Route #333: 
Route #334: 
Route #335: 
Route #336: 
Route #337: 
Route #338: 
Route #339: 
Route #340: 
Route #341: 
Route #342: 
Route #343: 
Route #344: 
Route #345: 
Route #346: 
Route #347: 
Route #348: 
Route #349: 
Route #350: 
Route #351: 
Route #352: 
Route #353: 
Route #354: 
Route #355: 
Route #356: 
Route #357: 
Route #358: 
Route #359: 
Route #360: 
Route #361: 
Route #362: 
Route #363: 
Route #364: 
Route #365: 
Route #366: 
Route #367: 
Route #368: 
Route #369: 
Route #370: 
Route #371: 
Route #372: 
Route #373: 
Route #374: 
Route #375: 
Route #376: 
Route #377: 
Route #378: 
Route #379: 
Route #380: 
Route #381: 
Route #382: 
Route #383: 
Route #384: 
Route #385: 
Route #386: 
Route #387: 
Route #388: 
Route #389: 
Route #390: 
Route #391: 
Route #392: 
Route #393: 
Route #394: 
Route #395: 
Route #396: 
Route #397: 
Route #398: 
Route #399: 
Route #400: 
Route #401: 
Route #402: 
Route #403: 
Route #404: 
Route #405: 
Route #406: 
Route #407: 
Route #408: 
Route #409: 
Route #410: 
Route #411: 
Route #412: 
Route #413: 
Route #414: 
Route #415: 
Route #416: 
Route #417: 
Route #418: 
Route #419: 
Route #420: 
Route #421: 
Route #422: 
Route #423: 
Route #424: 
Route #425: 
Route #426: 
Route #427: 
Route #428: 
Route #429: 
Route #430: 
Route #431: 
Route #432: 
Route #433: 
Route #434: 
Route #435: 
Route #436: 
Route #437: 
Route #438: 
Route #439: 
Route #440: 
Route #441: 
Route #442: 
Route #443: 
Route #444: 
Route #445: 
Route #446: 
Route #447: 
Route #448: 
Route #449: 
Route #450: 
Route #451: 
Route #452: 
Route #453: 
Route #454: 
Route #455: 
Route #456: 
Route #457: 
Route #458: 
Route #459: 
Route #460: 
Route #461: 
Route #462: 
Route #463: 
Route #464: 
Route #465: 
Route #466: 
Route #467: 
Route #468: 
Route #469: 
Route #470: 
Route #471: 
Route #472: 
Route #473: 
Route #474: 
Route #475: 
Route #476: 
Route #477: 
Route #478: 
Route #479: 
Route #480: 
Route #481: 
Route #482: 
Route #483: 
Route #484: 
Route #485: 
Route #486: 
Route #487: 
Route #488: 
Route #489: 
Route #490: 
Route #491: 
Route #492: 
Route #493: 
Route #494: 
Route #495: 
Route #496: 
Route #497: 
Route #498: 
Route #499: 
Route #500: 
Route #501: 
Route #502: 
Route #503: 
Route #504: 
Route #505: 
Route #506: 
Route #507: 
Route #508: 
Route #509: 
Route #510: 
Route #511: 
Route #512: 
Route #513: 
Route #514: 
Route #515: 
Route #516: 
Route #517: 
Route #518: 
Route #519: 
Route #520: 
Route #521: 
Route #522: 
Route #523: 
Route #524: 
Route #525: 
Route #526: 
Route #527: 
Route #528: 
Route #529: 
Route #530: 
Route #531: 
Route #532: 
Route #533: 
Route #534: 
Route #535: 
Route #536: 
Route #537: 
Route #538: 
Route #539: 
Route #540: 
Route #541: 
Route #542: 
Route #543: 
Route #544: 
Route #545: 
Route #546: 
Route #547: 
Route #548: 
Route #549: 
Route #550: 
Route #551: 
Route #552: 
Route #553: 
Route #554: 
Route #555: 
Route #556: 
Route #557: 
Route #558: 
Route #559: 
Route #560: 
Route #561: 
Route #562: 
Route #563: 
Route #564: 
Route #565: 
Route #566: 
Route #567: 
Route #568: 
Route #569: 
Route #570: 
Route #571: 
Route #572: 
Route #573: 
Route #574: 
Route #575: 
Route #576: 
Route #577: 
Route #578: 
Route #579: 
Route #580: 
Route #581: 
Route #582: 
Route #583: 
Route #584: 
Route #585: 
Route #586: 
Route #587: 
Route #588: 
Route #589: 
Route #590: 
Route #591: 
Route #592: 
Route #593: 
Route #594: 
Route #595: 
Route #596: 
Route #597: 
Route #598: 
Route #599: 
Route #600: 
Route #601: 
Route #602: 
Route #603: 
Route #604: 
Route #605: 
Route #606: 
Route #607: 
Route #608: 
Route #609: 
Route #610: 
Route #611: 
Route #612: 
Route #613: 
Route #614: 
Route #615: 
Route #616: 
Route #617: 
Route #618: 
Route #619: 
Route #620: 
Route #621: 
Route #622: 
Route #623: 
Route #624: 
Route #625: 
Route #626: 
Route #627: 
Route #628: 
Route #629: 
Route #630: 
Route #631: 
Route #632: 
Route #633: 
Route #634: 
Route #635: 
Route #636: 
Route #637: 
Route #638: 
Route #639: 
Route #640: 
Route #641: 
Route #642: 
Route #643: 
Route #644: 
Route #645: 
Route #646: 
Route #647: 
Route #648: 
Route #649: 
Route #650: 
Route #651: 
Route #652: 
Route #653: 306 178 322 326 299 6 106 285 36 61 258 164 225 207 88
Route #654: 70 231 116 22 45 132 74 19 140 276 193 37 187 275 191
Route #655: 173 291 233 10 277 280 146 316 1 201 196 215 117 41 288 325
Route #656: 247 290 175 152 79 94 18 314 69 31 156 135 91 47 14 16
Route #657: 309 24 121 139 101 21 119 11 144 107 109 65 46 162 161
Route #658: 302 321 206 209 261 293 226 229 315 168 307 179 192 23
Route #659: 
Route #660: 
Route #661: 
Route #662: 
Route #663: 
Route #664: 
Route #665: 
Route #666: 
Route #667: 
Route #668: 
Route #669: 
Route #670: 
Route #671: 
Route #672: 
Route #673: 
Route #674: 
Route #675: 
Route #676: 
Route #677: 
Route #678: 
Route #679: 
Route #680: 
Route #681: 
Route #682: 
Route #683: 
Route #684: 
Route #685: 
Route #686: 
Route #687: 
Route #688: 
Route #689: 
Route #690: 
Route #691: 
Route #692: 
Route #693: 
Route #694: 
Route #695: 
Route #696: 
Route #697: 
Route #698: 
Route #699: 
Route #700: 
Route #701: 
Route #702: 
Route #703: 
Route #704: 
Route #705: 
Route #706: 
Route #707: 
Route #708: 
Route #709: 
Route #710: 
Route #711: 
Route #712: 
Route #713: 
Route #714: 
Route #715: 
Route #716: 
Route #717: 
Route #718: 
Route #719: 
Route #720: 
Route #721: 
Route #722: 
Route #723: 
Route #724: 
Route #725: 
Route #726: 
Route #727: 
Route #728: 
Route #729: 
Route #730: 
Route #731: 
Route #732: 
Route #733: 
Route #734: 
Route #735: 
Route #736: 
Route #737: 
Route #738: 
Route #739: 
Route #740: 
Route #741: 
Route #742: 
Route #743: 
Route #744: 
Route #745: 
Route #746: 
Route #747: 
Route #748: 
Route #749: 
Route #750: 
Route #751: 
Route #752: 
Route #753: 
Route #754: 
Route #755: 
Route #756: 
Route #757: 
Route #758: 
Route #759: 
Route #760: 
Route #761: 
Route #762: 
Route #763: 
Route #764: 
Route #765: 
Route #766: 
Route #767: 
Route #768: 
Route #769: 
Route #770: 
Route #771: 
Route #772: 
Route #773: 
Route #774: 
Route #775: 
Route #776: 
Route #777: 
Route #778: 
Route #779: 
Route #780: 
Route #781: 
Route #782: 
Route #783: 
Route #784: 
Route #785: 
Route #786: 
Route #787: 
Route #788: 
Route #789: 
Route #790: 
Route #791: 
Route #792: 
Route #793: 
Route #794: 
Route #795: 
Route #796: 
Route #797: 
Route #798: 
Route #799: 
Route #800: 
Route #801: 
Route #802: 
Route #803: 
Route #804: 
Route #805: 
Route #806: 
Route #807: 
Route #808: 
Route #809: 
Route #810: 
Route #811: 
Route #812: 
Route #813: 
Route #814: 
Route #815: 
Route #816: 
Route #817: 
Route #818: 
Route #819: 
Route #820: 
Route #821: 
Route #822: 
Route #823: 
Route #824: 
Route #825: 
Route #826: 
Route #827: 
Route #828: 
Route #829: 
Route #830: 
Route #831: 
Route #832: 
Route #833: 
Route #834: 
Route #835: 
Route #836: 
Route #837: 
Route #838: 
Route #839: 
Route #840: 
Route #841: 
Route #842: 
Route #843: 
Route #844: 
Route #845: 
Route #846: 
Route #847: 
Route #848: 
Route #849: 
Route #850: 
Route #851: 
Route #852: 
Route #853: 
Route #854: 
Route #855: 
Route #856: 
Route #857: 
Route #858: 
Route #859: 
Route #860: 
Route #861: 
Route #862: 
Route #863: 
Route #864: 
Route #865: 
Route #866: 
Route #867: 
Route #868: 
Route #869: 
Route #870: 
Route #871: 
Route #872: 
Route #873: 
Route #874: 
Route #875: 
Route #876: 
Route #877: 
Route #878: 
Route #879: 
Route #880: 
Route #881: 
Route #882: 
Route #883: 
Route #884: 
Route #885: 
Route #886: 
Route #887: 
Route #888: 
Route #889: 
Route #890: 
Route #891: 
Route #892: 
Route #893: 
Route #894: 
Route #895: 
Route #896: 
Route #897: 
Route #898: 
Route #899: 
Route #900: 
Route #901: 
Route #902: 
Route #903: 
Route #904: 
Route #905: 
Route #906: 
Route #907: 
Route #908: 
Route #909: 
Route #910: 
Route #911: 
Route #912: 
Route #913: 
Route #914: 
Route #915: 
Route #916: 
Route #917: 
Route #918: 
Route #919: 
Route #920: 
Route #921: 
Route #922: 
Route #923: 
Route #924: 
Route #925: 
Route #926: 
Route #927: 
Route #928: 
Route #929: 
Route #930: 
Route #931: 
Route #932: 
Route #933: 
Route #934: 
Route #935: 
Route #936: 
Route #937: 
Route #938: 
Route #939: 
Route #940: 
Route #941: 
Route #942: 
Route #943: 
Route #944: 
Route #945: 
Route #946: 
Route #947: 
Route #948: 
Route #949: 
Route #950: 
Route #951: 
Route #952: 
Route #953: 
Route #954: 
Route #955: 
Route #956: 
Route #957: 
Route #958: 
Route #959: 
Route #960: 
Route #961: 
Route #962: 
Route #963: 
Route #964: 
Route #965: 
Route #966: 
Route #967: 
Route #968: 
Route #969: 
Route #970: 
Route #971: 
Route #972: 
Route #973: 
Route #974: 
Route #975: 
Route #976: 
Route #977: 
Route #978: 
Route #979: 7 286 308 33 313 66 254 40 92 216 167 273 214 265 245 220 279 198 217 120
Route #980: 
Route #981: 
Route #982: 
Route #983: 
Route #984: 
Route #985: 
Route #986: 
Route #987: 
Route #988: 
Route #989: 
Route #990: 
Route #991: 
Route #992: 
Route #993: 
Route #994: 
Route #995: 
Route #996: 
Route #997: 
Route #998: 
Route #999: 
Route #1000: 
Route #1001: 
Route #1002: 
Route #1003: 
Route #1004: 
Route #1005: 
Route #1006: 
Route #1007: 
Route #1008: 
Route #1009: 
Route #1010: 
Route #1011: 
Route #1012: 
Route #1013: 
Route #1014: 
Route #1015: 
Route #1016: 
Route #1017: 
Route #1018: 
Route #1019: 
Route #1020: 
Route #1021: 
Route #1022: 
Route #1023: 
Route #1024: 
Route #1025: 
Route #1026: 
Route #1027: 
Route #1028: 
Route #1029: 
Route #1030: 
Route #1031: 
Route #1032: 
Route #1033: 
Route #1034: 
Route #1035: 
Route #1036: 
Route #1037: 
Route #1038: 
Route #1039: 
Route #1040: 
Route #1041: 
Route #1042: 
Route #1043: 
Route #1044: 
Route #1045: 
Route #1046: 
Route #1047: 
Route #1048: 
Route #1049: 
Route #1050: 
Route #1051: 
Route #1052: 
Route #1053: 
Route #1054: 
Route #1055: 
Route #1056: 
Route #1057: 
Route #1058: 
Route #1059: 
Route #1060: 
Route #1061: 
Route #1062: 
Route #1063: 
Route #1064: 
Route #1065: 
Route #1066: 
Route #1067: 
Route #1068: 
Route #1069: 
Route #1070: 
Route #1071: 
Route #1072: 
Route #1073: 
Route #1074: 
Route #1075: 
Route #1076: 
Route #1077: 
Route #1078: 
Route #1079: 
Route #1080: 
Route #1081: 
Route #1082: 
Route #1083: 
Route #1084: 
Route #1085: 
Route #1086: 
Route #1087: 
Route #1088: 
Route #1089: 
Route #1090: 
Route #1091: 
Route #1092: 
Route #1093: 
Route #1094: 
Route #1095: 
Route #1096: 
Route #1097: 
Route #1098: 
Route #1099: 
Route #1100: 
Route #1101: 
Route #1102: 
Route #1103: 
Route #1104: 
Route #1105: 
Route #1106: 
Route #1107: 
Route #1108: 
Route #1109: 
Route #1110: 
Route #1111: 
Route #1112: 
Route #1113: 
Route #1114: 
Route #1115: 
Route #1116: 
Route #1117: 
Route #1118: 
Route #1119: 
Route #1120: 
Route #1121: 
Route #1122: 
Route #1123: 
Route #1124: 
Route #1125: 
Route #1126: 
Route #1127: 
Route #1128: 
Route #1129: 
Route #1130: 
Route #1131: 
Route #1132: 
Route #1133: 
Route #1134: 
Route #1135: 
Route #1136: 
Route #1137: 
Route #1138: 
Route #1139: 
Route #1140: 
Route #1141: 
Route #1142: 
Route #1143: 
Route #1144: 
Route #1145: 
Route #1146: 
Route #1147: 
Route #1148: 
Route #1149: 
Route #1150: 
Route #1151: 
Route #1152: 
Route #1153: 
Route #1154: 
Route #1155: 
Route #1156: 
Route #1157: 
Route #1158: 
Route #1159: 
Route #1160: 
Route #1161: 
Route #1162: 
Route #1163: 
Route #1164: 
Route #1165: 
Route #1166: 
Route #1167: 
Route #1168: 
Route #1169: 
Route #1170: 
Route #1171: 
Route #1172: 
Route #1173: 
Route #1174: 
Route #1175: 
Route #1176: 
Route #1177: 
Route #1178: 
Route #1179: 
Route #1180: 
Route #1181: 
Route #1182: 
Route #1183: 
Route #1184: 
Route #1185: 
Route #1186: 
Route #1187: 
Route #1188: 
Route #1189: 
Route #1190: 
Route #1191: 
Route #1192: 
Route #1193: 
Route #1194: 
Route #1195: 
Route #1196: 
Route #1197: 
Route #1198: 
Route #1199: 
Route #1200: 
Route #1201: 
Route #1202: 
Route #1203: 
Route #1204: 
Route #1205: 
Route #1206: 
Route #1207: 
Route #1208: 
Route #1209: 
Route #1210: 
Route #1211: 
Route #1212: 
Route #1213: 
Route #1214: 
Route #1215: 
Route #1216: 
Route #1217: 
Route #1218: 
Route #1219: 
Route #1220: 
Route #1221: 
Route #1222: 
Route #1223: 
Route #1224: 
Route #1225: 
Route #1226: 
Route #1227: 
Route #1228: 
Route #1229: 
Route #1230: 
Route #1231: 
Route #1232: 
Route #1233: 
Route #1234: 
Route #1235: 
Route #1236: 
Route #1237: 
Route #1238: 
Route #1239: 
Route #1240: 
Route #1241: 
Route #1242: 
Route #1243: 
Route #1244: 
Route #1245: 
Route #1246: 
Route #1247: 
Route #1248: 
Route #1249: 
Route #1250: 
Route #1251: 
Route #1252: 
Route #1253: 
Route #1254: 
Route #1255: 
Route #1256: 
Route #1257: 
Route #1258: 
Route #1259: 
Route #1260: 
Route #1261: 
Route #1262: 
Route #1263: 
Route #1264: 
Route #1265: 
Route #1266: 
Route #1267: 
Route #1268: 
Route #1269: 
Route #1270: 
Route #1271: 
Route #1272: 
Route #1273: 
Route #1274: 
Route #1275: 
Route #1276: 
Route #1277: 
Route #1278: 
Route #1279: 
Route #1280: 
Route #1281: 
Route #1282: 
Route #1283: 
Route #1284: 
Route #1285: 
Route #1286: 
Route #1287: 
Route #1288: 
Route #1289: 
Route #1290: 
Route #1291: 
Route #1292: 
Route #1293: 
Route #1294: 
Route #1295: 
Route #1296: 
Route #1297: 
Route #1298: 
Route #1299: 
Route #1300: 
Route #1301: 
Route #1302: 
Route #1303: 
Route #1304: 
Route #1305: 
Route #1306: 
Route #1307: 
Route #1308: 
Route #1309: 
Route #1310: 
Route #1311: 
Route #1312: 
Route #1313: 
Route #1314: 
Route #1315: 
Route #1316: 
Route #1317: 
Route #1318: 
Route #1319: 
Route #1320: 
Route #1321: 
Route #1322: 
Route #1323: 
Route #1324: 
Route #1325: 
Route #1326: 
Route #1327: 
Route #1328: 
Route #1329: 
Route #1330: 
Route #1331: 
Route #1332: 
Route #1333: 
Route #1334: 
Route #1335: 
Route #1336: 
Route #1337: 
Route #1338: 
Route #1339: 
Route #1340: 
Route #1341: 
Route #1342: 
Route #1343: 
Route #1344: 
Route #1345: 
Route #1346: 
Route #1347: 
Route #1348: 
Route #1349: 
Route #1350: 
Route #1351: 
Route #1352: 
Route #1353: 
Route #1354: 
Route #1355: 
Route #1356: 
Route #1357: 
Route #1358: 
Route #1359: 
Route #1360: 
Route #1361: 
Route #1362: 
Route #1363: 
Route #1364: 
Route #1365: 
Route #1366: 
Route #1367: 
Route #1368: 
Route #1369: 
Route #1370: 
Route #1371: 
Route #1372: 
Route #1373: 
Route #1374: 
Route #1375: 
Route #1376: 
Route #1377: 
Route #1378: 
Route #1379: 
Route #1380: 
Route #1381: 
Route #1382: 
Route #1383: 
Route #1384: 
Route #1385: 
Route #1386: 
Route #1387: 
Route #1388: 
Route #1389: 
Route #1390: 
Route #1391: 
Route #1392: 
Route #1393: 
Route #1394: 
Route #1395: 
Route #1396: 
Route #1397: 
Route #1398: 
Route #1399: 
Route #1400: 
Route #1401: 
Route #1402: 
Route #1403: 
Route #1404: 
Route #1405: 
Route #1406: 
Route #1407: 
Route #1408: 
Route #1409: 
Route #1410: 
Route #1411: 
Route #1412: 
Route #1413: 
Route #1414: 
Route #1415: 
Route #1416: 
Route #1417: 
Route #1418: 
Route #1419: 
Route #1420: 
Route #1421: 
Route #1422: 
Route #1423: 
Route #1424: 
Route #1425: 
Route #1426: 
Route #1427: 
Route #1428: 
Route #1429: 
Route #1430: 
Route #1431: 
Route #1432: 
Route #1433: 
Route #1434: 
Route #1435: 
Route #1436: 
Route #1437: 
Route #1438: 
Route #1439: 
Route #1440: 
Route #1441: 
Route #1442: 
Route #1443: 
Route #1444: 
Route #1445: 
Route #1446: 
Route #1447: 
Route #1448: 
Route #1449: 
Route #1450: 
Route #1451: 
Route #1452: 
Route #1453: 
Route #1454: 
Route #1455: 
Route #1456: 
Route #1457: 
Route #1458: 
Route #1459: 
Route #1460: 
Route #1461: 
Route #1462: 
Route #1463: 
Route #1464: 
Route #1465: 
Route #1466: 
Route #1467: 
Route #1468: 
Route #1469: 
Route #1470: 
Route #1471: 
Route #1472: 
Route #1473: 
Route #1474: 
Route #1475: 
Route #1476: 
Route #1477: 
Route #1478: 
Route #1479: 
Route #1480: 
Route #1481: 
Route #1482: 
Route #1483: 
Route #1484: 
Route #1485: 
Route #1486: 
Route #1487: 
Route #1488: 
Route #1489: 
Route #1490: 
Route #1491: 
Route #1492: 
Route #1493: 
Route #1494: 
Route #1495: 
Route #1496: 
Route #1497: 
Route #1498: 
Route #1499: 
Route #1500: 
Route #1501: 
Route #1502: 
Route #1503: 
Route #1504: 
Route #1505: 
Route #1506: 
Route #1507: 
Route #1508: 
Route #1509: 
Route #1510: 
Route #1511: 
Route #1512: 
Route #1513: 
Route #1514: 
Route #1515: 
Route #1516: 
Route #1517: 
Route #1518: 
Route #1519: 
Route #1520: 
Route #1521: 
Route #1522: 
Route #1523: 
Route #1524: 
Route #1525: 
Route #1526: 
Route #1527: 
Route #1528: 
Route #1529: 
Route #1530: 
Route #1531: 
Route #1532: 
Route #1533: 
Route #1534: 
Route #1535: 
Route #1536: 
Route #1537: 
Route #1538: 
Route #1539: 
Route #1540: 
Route #1541: 
Route #1542: 
Route #1543: 
Route #1544: 
Route #1545: 
Route #1546: 
Route #1547: 
Route #1548: 
Route #1549: 
Route #1550: 
Route #1551: 
Route #1552: 
Route #1553: 
Route #1554: 
Route #1555: 
Route #1556: 
Route #1557: 
Route #1558: 
Route #1559: 
Route #1560: 
Route #1561: 
Route #1562: 
Route #1563: 
Route #1564: 
Route #1565: 
Route #1566: 
Route #1567: 
Route #1568: 
Route #1569: 
Route #1570: 
Route #1571: 
Route #1572: 
Route #1573: 
Route #1574: 
Route #1575: 
Route #1576: 
Route #1577: 
Route #1578: 
Route #1579: 
Route #1580: 
Route #1581: 
Route #1582: 
Route #1583: 
Route #1584: 
Route #1585: 
Route #1586: 
Route #1587: 
Route #1588: 
Route #1589: 
Route #1590: 
Route #1591: 
Route #1592: 
Route #1593: 
Route #1594: 
Route #1595: 
Route #1596: 
Route #1597: 
Route #1598: 
Route #1599: 
Route #1600: 
Route #1601: 
Route #1602: 
Route #1603: 
Route #1604: 
Route #1605: 
Route #1606: 
Route #1607: 
Route #1608: 
Route #1609: 
Route #1610: 
Route #1611: 
Route #1612: 
Route #1613: 
Route #1614: 
Route #1615: 
Route #1616: 
Route #1617: 
Route #1618: 
Route #1619: 
Route #1620: 
Route #1621: 
Route #1622: 
Route #1623: 
Route #1624: 
Route #1625: 
Route #1626: 
Route #1627: 
Route #1628: 
Route #1629: 
Route #1630: 
Cost: 38340.48
